(set-logic QF_SLIA)
(declare-const result String)
(declare-const attack String)
(declare-const prefix RegLan)
(declare-const infix RegLan)
(declare-const postfix RegLan)
(declare-const postfixs String)

(assert (str.in_re attack (re.++ prefix ((_ re.loop 5000 5000) infix) postfix)))
(assert (= prefix 
     (re.++  (re.++  (re.++  (str.to_re "\u{4f}") (re.++  (str.to_re "\u{70}") (re.++  (str.to_re "\u{65}") (re.++  (str.to_re "\u{72}")  (str.to_re "\u{61}"))))) (re.++  (str.to_re "\u{5c}\u{2f}") (re.++ (re.+ (re.range "0" "9") )  (str.to_re "\u{5c}\u{2e}")))) (re.+ (re.range "0" "9") ))
))
(assert (= infix 
         (re.++ (re.+ (re.range "\u{30}" "\u{39}") ) (re.++  (str.to_re "\u{26}") (re.++  (re.++ (re.+ (re.range "\u{30}" "\u{39}") ) (re.++  (re.+  (re.union  (str.to_re "\u{0a}")  (str.to_re "\u{0d}")) ))) (re.++  (str.to_re "\u{26}") (re.++ (re.+  (re.union  (str.to_re "\u{0a}")  (str.to_re "\u{0d}")) ) (re.++  (str.to_re "\u{26}") (re.+ re.allchar )))))))
))
(assert (= postfix 
         (str.to_re "\u{40}")
))
(assert (str.in_re postfixs postfix))
(assert (>= (str.len postfixs) 1))
(assert (= result (str.++ attack postfixs)))
(check-sat)
(get-model)